\ Model folding
\ LP format - for model browsing. Use MPS format to capture full model detail.
Minimize
 
Subject To
 f0_0: y[0] + y[1] - w[6] = 0
 f0_1: y[0] + y[3] - w[8] = 0
 f0_2: y[1] + y[2] - w[9] = 0
 f0_3: y[1] + y[3] - w[10] = 0
 f0_4: y[0] - w[12] = 0
 nf0_0: y[0] + y[1] + y[2] + y[3] - w[0] <= 0
 nf0_1: - w[1] <= 0
 nf0_2: y[0] + y[1] + y[2] - w[2] <= 0
 nf0_3: y[0] + y[1] + y[3] - w[3] <= 0
 nf0_4: y[0] + y[2] + y[3] - w[4] <= 0
 nf0_5: y[1] + y[2] + y[3] - w[5] <= 0
 nf0_6: y[0] + y[2] - w[7] <= 0
 nf0_7: y[2] + y[3] - w[11] <= 0
 nf0_8: y[1] - w[13] <= 0
 nf0_9: y[2] - w[14] <= 0
 nf0_10: y[3] - w[15] <= 0
 f1_0: y[0] + y[1] - w[6] = 0
 f1_1: y[1] + y[2] - w[9] = 0
 f1_2: y[1] + y[3] - w[10] = 0
 f1_3: y[0] - w[12] = 0
 f1_4: y[1] - w[13] = 0
 nf1_0: y[0] + y[1] + y[2] + y[3] - w[0] <= 0
 nf1_1: - w[1] <= 0
 nf1_2: y[0] + y[1] + y[2] - w[2] <= 0
 nf1_3: y[0] + y[1] + y[3] - w[3] <= 0
 nf1_4: y[0] + y[2] + y[3] - w[4] <= 0
 nf1_5: y[1] + y[2] + y[3] - w[5] <= 0
 nf1_6: y[0] + y[2] - w[7] <= 0
 nf1_7: y[0] + y[3] - w[8] <= 0
 nf1_8: y[2] + y[3] - w[11] <= 0
 nf1_9: y[2] - w[14] <= 0
 nf1_10: y[3] - w[15] <= 0
 f2_0: y[1] + y[2] - w[9] = 0
 f2_1: y[1] + y[3] - w[10] = 0
 f2_2: y[0] - w[12] = 0
 f2_3: y[1] - w[13] = 0
 f2_4: y[3] - w[15] = 0
 nf2_0: y[0] + y[1] + y[2] + y[3] - w[0] <= 0
 nf2_1: - w[1] <= 0
 nf2_2: y[0] + y[1] + y[2] - w[2] <= 0
 nf2_3: y[0] + y[1] + y[3] - w[3] <= 0
 nf2_4: y[0] + y[2] + y[3] - w[4] <= 0
 nf2_5: y[1] + y[2] + y[3] - w[5] <= 0
 nf2_6: y[0] + y[1] - w[6] <= 0
 nf2_7: y[0] + y[2] - w[7] <= 0
 nf2_8: y[0] + y[3] - w[8] <= 0
 nf2_9: y[2] + y[3] - w[11] <= 0
 nf2_10: y[2] - w[14] <= 0
 f3_0: - w[1] = 0
 f3_1: y[1] + y[2] - w[9] = 0
 f3_2: y[0] - w[12] = 0
 f3_3: y[2] - w[14] = 0
 f3_4: y[3] - w[15] = 0
 nf3_0: y[0] + y[1] + y[2] + y[3] - w[0] <= 0
 nf3_1: y[0] + y[1] + y[2] - w[2] <= 0
 nf3_2: y[0] + y[1] + y[3] - w[3] <= 0
 nf3_3: y[0] + y[2] + y[3] - w[4] <= 0
 nf3_4: y[1] + y[2] + y[3] - w[5] <= 0
 nf3_5: y[0] + y[1] - w[6] <= 0
 nf3_6: y[0] + y[2] - w[7] <= 0
 nf3_7: y[0] + y[3] - w[8] <= 0
 nf3_8: y[1] + y[3] - w[10] <= 0
 nf3_9: y[2] + y[3] - w[11] <= 0
 nf3_10: y[1] - w[13] <= 0
 f4_0: - w[1] = 0
 f4_1: y[1] + y[2] - w[9] = 0
 f4_2: y[0] - w[12] = 0
 f4_3: y[1] - w[13] = 0
 f4_4: y[3] - w[15] = 0
 nf4_0: y[0] + y[1] + y[2] + y[3] - w[0] <= 0
 nf4_1: y[0] + y[1] + y[2] - w[2] <= 0
 nf4_2: y[0] + y[1] + y[3] - w[3] <= 0
 nf4_3: y[0] + y[2] + y[3] - w[4] <= 0
 nf4_4: y[1] + y[2] + y[3] - w[5] <= 0
 nf4_5: y[0] + y[1] - w[6] <= 0
 nf4_6: y[0] + y[2] - w[7] <= 0
 nf4_7: y[0] + y[3] - w[8] <= 0
 nf4_8: y[1] + y[3] - w[10] <= 0
 nf4_9: y[2] + y[3] - w[11] <= 0
 nf4_10: y[2] - w[14] <= 0
 f5_0: y[0] + y[3] - w[8] = 0
 f5_1: y[1] + y[2] - w[9] = 0
 f5_2: y[1] + y[3] - w[10] = 0
 f5_3: y[0] - w[12] = 0
 f5_4: y[3] - w[15] = 0
 nf5_0: y[0] + y[1] + y[2] + y[3] - w[0] <= 0
 nf5_1: - w[1] <= 0
 nf5_2: y[0] + y[1] + y[2] - w[2] <= 0
 nf5_3: y[0] + y[1] + y[3] - w[3] <= 0
 nf5_4: y[0] + y[2] + y[3] - w[4] <= 0
 nf5_5: y[1] + y[2] + y[3] - w[5] <= 0
 nf5_6: y[0] + y[1] - w[6] <= 0
 nf5_7: y[0] + y[2] - w[7] <= 0
 nf5_8: y[2] + y[3] - w[11] <= 0
 nf5_9: y[1] - w[13] <= 0
 nf5_10: y[2] - w[14] <= 0
 f6_0: y[0] + y[2] - w[7] = 0
 f6_1: y[1] + y[2] - w[9] = 0
 f6_2: y[0] - w[12] = 0
 f6_3: y[2] - w[14] = 0
 f6_4: y[3] - w[15] = 0
 nf6_0: y[0] + y[1] + y[2] + y[3] - w[0] <= 0
 nf6_1: - w[1] <= 0
 nf6_2: y[0] + y[1] + y[2] - w[2] <= 0
 nf6_3: y[0] + y[1] + y[3] - w[3] <= 0
 nf6_4: y[0] + y[2] + y[3] - w[4] <= 0
 nf6_5: y[1] + y[2] + y[3] - w[5] <= 0
 nf6_6: y[0] + y[1] - w[6] <= 0
 nf6_7: y[0] + y[3] - w[8] <= 0
 nf6_8: y[1] + y[3] - w[10] <= 0
 nf6_9: y[2] + y[3] - w[11] <= 0
 nf6_10: y[1] - w[13] <= 0
 f7_0: y[0] + y[2] - w[7] = 0
 f7_1: y[1] + y[2] - w[9] = 0
 f7_2: y[2] + y[3] - w[11] = 0
 f7_3: y[2] - w[14] = 0
 f7_4: y[3] - w[15] = 0
 nf7_0: y[0] + y[1] + y[2] + y[3] - w[0] <= 0
 nf7_1: - w[1] <= 0
 nf7_2: y[0] + y[1] + y[2] - w[2] <= 0
 nf7_3: y[0] + y[1] + y[3] - w[3] <= 0
 nf7_4: y[0] + y[2] + y[3] - w[4] <= 0
 nf7_5: y[1] + y[2] + y[3] - w[5] <= 0
 nf7_6: y[0] + y[1] - w[6] <= 0
 nf7_7: y[0] + y[3] - w[8] <= 0
 nf7_8: y[1] + y[3] - w[10] <= 0
 nf7_9: y[0] - w[12] <= 0
 nf7_10: y[1] - w[13] <= 0
 f8_0: y[0] + y[1] + y[2] + y[3] - w[0] = 0
 f8_1: y[0] + y[2] + y[3] - w[4] = 0
 f8_2: y[1] + y[2] + y[3] - w[5] = 0
 f8_3: y[0] + y[1] - w[6] = 0
 f8_4: y[1] + y[2] - w[9] = 0
 nf8_0: - w[1] <= 0
 nf8_1: y[0] + y[1] + y[2] - w[2] <= 0
 nf8_2: y[0] + y[1] + y[3] - w[3] <= 0
 nf8_3: y[0] + y[2] - w[7] <= 0
 nf8_4: y[0] + y[3] - w[8] <= 0
 nf8_5: y[1] + y[3] - w[10] <= 0
 nf8_6: y[2] + y[3] - w[11] <= 0
 nf8_7: y[0] - w[12] <= 0
 nf8_8: y[1] - w[13] <= 0
 nf8_9: y[2] - w[14] <= 0
 nf8_10: y[3] - w[15] <= 0
 f9_0: y[0] + y[1] + y[2] + y[3] - w[0] = 0
 f9_1: y[0] + y[1] + y[2] - w[2] = 0
 f9_2: y[0] + y[2] + y[3] - w[4] = 0
 f9_3: y[0] + y[1] - w[6] = 0
 f9_4: y[1] + y[2] - w[9] = 0
 nf9_0: - w[1] <= 0
 nf9_1: y[0] + y[1] + y[3] - w[3] <= 0
 nf9_2: y[1] + y[2] + y[3] - w[5] <= 0
 nf9_3: y[0] + y[2] - w[7] <= 0
 nf9_4: y[0] + y[3] - w[8] <= 0
 nf9_5: y[1] + y[3] - w[10] <= 0
 nf9_6: y[2] + y[3] - w[11] <= 0
 nf9_7: y[0] - w[12] <= 0
 nf9_8: y[1] - w[13] <= 0
 nf9_9: y[2] - w[14] <= 0
 nf9_10: y[3] - w[15] <= 0
 f10_0: y[0] + y[2] + y[3] - w[4] = 0
 f10_1: y[0] + y[1] - w[6] = 0
 f10_2: y[0] + y[3] - w[8] = 0
 f10_3: y[1] + y[2] - w[9] = 0
 f10_4: y[0] - w[12] = 0
 nf10_0: y[0] + y[1] + y[2] + y[3] - w[0] <= 0
 nf10_1: - w[1] <= 0
 nf10_2: y[0] + y[1] + y[2] - w[2] <= 0
 nf10_3: y[0] + y[1] + y[3] - w[3] <= 0
 nf10_4: y[1] + y[2] + y[3] - w[5] <= 0
 nf10_5: y[0] + y[2] - w[7] <= 0
 nf10_6: y[1] + y[3] - w[10] <= 0
 nf10_7: y[2] + y[3] - w[11] <= 0
 nf10_8: y[1] - w[13] <= 0
 nf10_9: y[2] - w[14] <= 0
 nf10_10: y[3] - w[15] <= 0
 f11_0: y[0] + y[2] + y[3] - w[4] = 0
 f11_1: y[1] + y[2] + y[3] - w[5] = 0
 f11_2: y[0] + y[1] - w[6] = 0
 f11_3: y[1] + y[2] - w[9] = 0
 f11_4: y[1] + y[3] - w[10] = 0
 nf11_0: y[0] + y[1] + y[2] + y[3] - w[0] <= 0
 nf11_1: - w[1] <= 0
 nf11_2: y[0] + y[1] + y[2] - w[2] <= 0
 nf11_3: y[0] + y[1] + y[3] - w[3] <= 0
 nf11_4: y[0] + y[2] - w[7] <= 0
 nf11_5: y[0] + y[3] - w[8] <= 0
 nf11_6: y[2] + y[3] - w[11] <= 0
 nf11_7: y[0] - w[12] <= 0
 nf11_8: y[1] - w[13] <= 0
 nf11_9: y[2] - w[14] <= 0
 nf11_10: y[3] - w[15] <= 0
 f12_0: y[0] + y[2] + y[3] - w[4] = 0
 f12_1: y[0] + y[1] - w[6] = 0
 f12_2: y[0] + y[3] - w[8] = 0
 f12_3: y[1] + y[2] - w[9] = 0
 f12_4: y[1] + y[3] - w[10] = 0
 nf12_0: y[0] + y[1] + y[2] + y[3] - w[0] <= 0
 nf12_1: - w[1] <= 0
 nf12_2: y[0] + y[1] + y[2] - w[2] <= 0
 nf12_3: y[0] + y[1] + y[3] - w[3] <= 0
 nf12_4: y[1] + y[2] + y[3] - w[5] <= 0
 nf12_5: y[0] + y[2] - w[7] <= 0
 nf12_6: y[2] + y[3] - w[11] <= 0
 nf12_7: y[0] - w[12] <= 0
 nf12_8: y[1] - w[13] <= 0
 nf12_9: y[2] - w[14] <= 0
 nf12_10: y[3] - w[15] <= 0
 f13_0: y[0] + y[1] + y[3] - w[3] = 0
 f13_1: y[0] + y[2] + y[3] - w[4] = 0
 f13_2: y[0] + y[1] - w[6] = 0
 f13_3: y[0] + y[3] - w[8] = 0
 f13_4: y[1] + y[3] - w[10] = 0
 nf13_0: y[0] + y[1] + y[2] + y[3] - w[0] <= 0
 nf13_1: - w[1] <= 0
 nf13_2: y[0] + y[1] + y[2] - w[2] <= 0
 nf13_3: y[1] + y[2] + y[3] - w[5] <= 0
 nf13_4: y[0] + y[2] - w[7] <= 0
 nf13_5: y[1] + y[2] - w[9] <= 0
 nf13_6: y[2] + y[3] - w[11] <= 0
 nf13_7: y[0] - w[12] <= 0
 nf13_8: y[1] - w[13] <= 0
 nf13_9: y[2] - w[14] <= 0
 nf13_10: y[3] - w[15] <= 0
 f14_0: y[0] + y[2] + y[3] - w[4] = 0
 f14_1: y[1] + y[2] + y[3] - w[5] = 0
 f14_2: y[1] + y[2] - w[9] = 0
 f14_3: y[1] + y[3] - w[10] = 0
 f14_4: y[2] + y[3] - w[11] = 0
 nf14_0: y[0] + y[1] + y[2] + y[3] - w[0] <= 0
 nf14_1: - w[1] <= 0
 nf14_2: y[0] + y[1] + y[2] - w[2] <= 0
 nf14_3: y[0] + y[1] + y[3] - w[3] <= 0
 nf14_4: y[0] + y[1] - w[6] <= 0
 nf14_5: y[0] + y[2] - w[7] <= 0
 nf14_6: y[0] + y[3] - w[8] <= 0
 nf14_7: y[0] - w[12] <= 0
 nf14_8: y[1] - w[13] <= 0
 nf14_9: y[2] - w[14] <= 0
 nf14_10: y[3] - w[15] <= 0
 f15_0: y[0] + y[1] + y[2] + y[3] - w[0] = 0
 f15_1: y[0] + y[2] + y[3] - w[4] = 0
 f15_2: y[1] + y[2] + y[3] - w[5] = 0
 f15_3: y[0] + y[1] - w[6] = 0
 f15_4: y[1] + y[3] - w[10] = 0
 nf15_0: - w[1] <= 0
 nf15_1: y[0] + y[1] + y[2] - w[2] <= 0
 nf15_2: y[0] + y[1] + y[3] - w[3] <= 0
 nf15_3: y[0] + y[2] - w[7] <= 0
 nf15_4: y[0] + y[3] - w[8] <= 0
 nf15_5: y[1] + y[2] - w[9] <= 0
 nf15_6: y[2] + y[3] - w[11] <= 0
 nf15_7: y[0] - w[12] <= 0
 nf15_8: y[1] - w[13] <= 0
 nf15_9: y[2] - w[14] <= 0
 nf15_10: y[3] - w[15] <= 0
 f16_0: y[0] + y[1] + y[2] + y[3] - w[0] = 0
 f16_1: y[0] + y[1] + y[3] - w[3] = 0
 f16_2: y[0] + y[2] + y[3] - w[4] = 0
 f16_3: y[0] + y[1] - w[6] = 0
 f16_4: y[1] + y[3] - w[10] = 0
 nf16_0: - w[1] <= 0
 nf16_1: y[0] + y[1] + y[2] - w[2] <= 0
 nf16_2: y[1] + y[2] + y[3] - w[5] <= 0
 nf16_3: y[0] + y[2] - w[7] <= 0
 nf16_4: y[0] + y[3] - w[8] <= 0
 nf16_5: y[1] + y[2] - w[9] <= 0
 nf16_6: y[2] + y[3] - w[11] <= 0
 nf16_7: y[0] - w[12] <= 0
 nf16_8: y[1] - w[13] <= 0
 nf16_9: y[2] - w[14] <= 0
 nf16_10: y[3] - w[15] <= 0
 f17_0: y[0] + y[2] + y[3] - w[4] = 0
 f17_1: y[1] + y[2] - w[9] = 0
 f17_2: y[1] + y[3] - w[10] = 0
 f17_3: y[2] + y[3] - w[11] = 0
 f17_4: y[3] - w[15] = 0
 nf17_0: y[0] + y[1] + y[2] + y[3] - w[0] <= 0
 nf17_1: - w[1] <= 0
 nf17_2: y[0] + y[1] + y[2] - w[2] <= 0
 nf17_3: y[0] + y[1] + y[3] - w[3] <= 0
 nf17_4: y[1] + y[2] + y[3] - w[5] <= 0
 nf17_5: y[0] + y[1] - w[6] <= 0
 nf17_6: y[0] + y[2] - w[7] <= 0
 nf17_7: y[0] + y[3] - w[8] <= 0
 nf17_8: y[0] - w[12] <= 0
 nf17_9: y[1] - w[13] <= 0
 nf17_10: y[2] - w[14] <= 0
 f18_0: y[0] + y[2] + y[3] - w[4] = 0
 f18_1: y[0] + y[2] - w[7] = 0
 f18_2: y[1] + y[2] - w[9] = 0
 f18_3: y[2] + y[3] - w[11] = 0
 f18_4: y[3] - w[15] = 0
 nf18_0: y[0] + y[1] + y[2] + y[3] - w[0] <= 0
 nf18_1: - w[1] <= 0
 nf18_2: y[0] + y[1] + y[2] - w[2] <= 0
 nf18_3: y[0] + y[1] + y[3] - w[3] <= 0
 nf18_4: y[1] + y[2] + y[3] - w[5] <= 0
 nf18_5: y[0] + y[1] - w[6] <= 0
 nf18_6: y[0] + y[3] - w[8] <= 0
 nf18_7: y[1] + y[3] - w[10] <= 0
 nf18_8: y[0] - w[12] <= 0
 nf18_9: y[1] - w[13] <= 0
 nf18_10: y[2] - w[14] <= 0
 f19_0: y[0] + y[2] + y[3] - w[4] = 0
 f19_1: y[0] + y[3] - w[8] = 0
 f19_2: y[1] + y[2] - w[9] = 0
 f19_3: y[1] + y[3] - w[10] = 0
 f19_4: y[3] - w[15] = 0
 nf19_0: y[0] + y[1] + y[2] + y[3] - w[0] <= 0
 nf19_1: - w[1] <= 0
 nf19_2: y[0] + y[1] + y[2] - w[2] <= 0
 nf19_3: y[0] + y[1] + y[3] - w[3] <= 0
 nf19_4: y[1] + y[2] + y[3] - w[5] <= 0
 nf19_5: y[0] + y[1] - w[6] <= 0
 nf19_6: y[0] + y[2] - w[7] <= 0
 nf19_7: y[2] + y[3] - w[11] <= 0
 nf19_8: y[0] - w[12] <= 0
 nf19_9: y[1] - w[13] <= 0
 nf19_10: y[2] - w[14] <= 0
 f20_0: y[0] + y[2] + y[3] - w[4] = 0
 f20_1: y[0] + y[3] - w[8] = 0
 f20_2: y[1] + y[2] - w[9] = 0
 f20_3: y[0] - w[12] = 0
 f20_4: y[3] - w[15] = 0
 nf20_0: y[0] + y[1] + y[2] + y[3] - w[0] <= 0
 nf20_1: - w[1] <= 0
 nf20_2: y[0] + y[1] + y[2] - w[2] <= 0
 nf20_3: y[0] + y[1] + y[3] - w[3] <= 0
 nf20_4: y[1] + y[2] + y[3] - w[5] <= 0
 nf20_5: y[0] + y[1] - w[6] <= 0
 nf20_6: y[0] + y[2] - w[7] <= 0
 nf20_7: y[1] + y[3] - w[10] <= 0
 nf20_8: y[2] + y[3] - w[11] <= 0
 nf20_9: y[1] - w[13] <= 0
 nf20_10: y[2] - w[14] <= 0
 f21_0: y[0] + y[2] + y[3] - w[4] = 0
 f21_1: y[0] + y[2] - w[7] = 0
 f21_2: y[1] + y[2] - w[9] = 0
 f21_3: y[0] - w[12] = 0
 f21_4: y[3] - w[15] = 0
 nf21_0: y[0] + y[1] + y[2] + y[3] - w[0] <= 0
 nf21_1: - w[1] <= 0
 nf21_2: y[0] + y[1] + y[2] - w[2] <= 0
 nf21_3: y[0] + y[1] + y[3] - w[3] <= 0
 nf21_4: y[1] + y[2] + y[3] - w[5] <= 0
 nf21_5: y[0] + y[1] - w[6] <= 0
 nf21_6: y[0] + y[3] - w[8] <= 0
 nf21_7: y[1] + y[3] - w[10] <= 0
 nf21_8: y[2] + y[3] - w[11] <= 0
 nf21_9: y[1] - w[13] <= 0
 nf21_10: y[2] - w[14] <= 0
 f22_0: y[0] + y[1] + y[2] - w[2] = 0
 f22_1: y[0] + y[2] + y[3] - w[4] = 0
 f22_2: y[0] + y[2] - w[7] = 0
 f22_3: y[1] + y[2] - w[9] = 0
 f22_4: y[0] - w[12] = 0
 nf22_0: y[0] + y[1] + y[2] + y[3] - w[0] <= 0
 nf22_1: - w[1] <= 0
 nf22_2: y[0] + y[1] + y[3] - w[3] <= 0
 nf22_3: y[1] + y[2] + y[3] - w[5] <= 0
 nf22_4: y[0] + y[1] - w[6] <= 0
 nf22_5: y[0] + y[3] - w[8] <= 0
 nf22_6: y[1] + y[3] - w[10] <= 0
 nf22_7: y[2] + y[3] - w[11] <= 0
 nf22_8: y[1] - w[13] <= 0
 nf22_9: y[2] - w[14] <= 0
 nf22_10: y[3] - w[15] <= 0
 f23_0: y[0] + y[1] + y[2] - w[2] = 0
 f23_1: y[0] + y[2] + y[3] - w[4] = 0
 f23_2: y[0] + y[1] - w[6] = 0
 f23_3: y[1] + y[2] - w[9] = 0
 f23_4: y[0] - w[12] = 0
 nf23_0: y[0] + y[1] + y[2] + y[3] - w[0] <= 0
 nf23_1: - w[1] <= 0
 nf23_2: y[0] + y[1] + y[3] - w[3] <= 0
 nf23_3: y[1] + y[2] + y[3] - w[5] <= 0
 nf23_4: y[0] + y[2] - w[7] <= 0
 nf23_5: y[0] + y[3] - w[8] <= 0
 nf23_6: y[1] + y[3] - w[10] <= 0
 nf23_7: y[2] + y[3] - w[11] <= 0
 nf23_8: y[1] - w[13] <= 0
 nf23_9: y[2] - w[14] <= 0
 nf23_10: y[3] - w[15] <= 0
Bounds
End
